c A SAT instance generated from a 3-CNF formula that had 14 clauses and 7 variables
p cnf 7 14
-7 4 6 0
-1 7 -3 0
-3 4 1 0
3 -7 6 0
2 3 -6 0
7 -2 3 0
-4 -5 6 0
-6 -3 -1 0
7 3 5 0
7 5 -4 0
-4 -2 1 0
7 3 -6 0
-7 3 6 0
1 5 -3 0
